projects/1-Weaving-english/YETI/OLD/level01.lp
%%%%
%rr%
%rb%
%%%%

% Solutions: 3

dim(2). steps(4).
color(red). color(blue).
square_color(1,1,red).
square_color(2,1,red).
square_color(1,2,red).
square_color(2,2,blue).
gets_painted(y,2,red,1).
